(declare-const |return@pos'| Int)
(declare-const type_err Int)
(declare-const x Int)
(declare-const type_err0 Int)
(declare-const havoc Int)
(declare-const |return@width'| Int)
(declare-const return@width Int)
(declare-const |return'| Int)
(declare-const term_to_project_onto2 Real)
(declare-const term_to_project_onto0 Real)
(declare-const return Int)
(declare-const term_to_project_onto Real)
(declare-const term_to_project_onto1 Real)
(declare-const |x'| Int)
(declare-const return@pos Int)
(assert (and (= x 0) (= x 0) (= (+ (- type_err0) |return@width'|) 0)
               (= (+ (- type_err) |return@pos'|) 0)
               (= (+ (- havoc) |return'|) 0) (= |x'| 0)
               (= term_to_project_onto2 (+ |x'| (- x)))
               (= term_to_project_onto1 (+ |return'| (- return)))
               (= term_to_project_onto0 (+ |return@pos'| (- return@pos)))
               (= term_to_project_onto (+ |return@width'| (- return@width)))))
(check-sat)
